100
32
23
6
2
16
30
15
31
2
10
6
1
32
31
17
4
16
3
31
30
15
17
31
31
32
4
10
15
16
11
10
14
29
9
17
26
15
1
9
13
23
16
14
20
11
28
12
31
18
27
10
2
21
25
1
26
3
20
2
5
20
20
1
11
31
1
2
1
2
28
7
1
4
3
31
4
30
6
1
6
20
2
23
16
25
17
28
16
2
19
4
11
12
27
20
9
9
7
1
6
5